param HOURS_PER_DAY := 32;

set EXPERTN :=
'PM.Angel';

param EBOUND_NO := 1;

param EBOUND:
1   2   3   4   5 :=
1 'PM.Angel' 2 367 0 24;

param:
TASKN: TASKS TASKE TASKW :=
'charlie.pm' 2 157 320
'charlie.pf' 158 188 40
'delta.pm' 2 57 100
'delta.pf' 58 103 20
'juliet.pe' 42 59 40
'juliet.pm' 60 182 200
'juliet.pf' 183 228 20
'mike.pe' 101 111 40
'mike.pm' 112 269 200
'mike.pf' 270 304 20
'november.pe' 147 166 40
'november.pm' 167 365 220
'november.pf' 366 397 20
;

param:
PAYROLLN: PAYROLLS PAYROLLE :=
'Jan.25' 1 16
'Feb.25' 17 45
'Mar.25' 46 76
'Apr.25' 77 105
'May.25' 106 139
'Jun.25' 140 170
'Jul.25' 171 199
'Aug.25' 200 230
'Sep.25' 231 259
'Oct.25' 260 289
'Nov.25' 290 317
'Dec.25' 318 346;

param:
EXPPAY: PAYROLLBL PAYROLLBU :=
'PM.Angel' 'Jan.25' 0.0 720.0
'PM.Angel' 'Feb.25' 0.0 720.0
'PM.Angel' 'Mar.25' 0.0 720.0
'PM.Angel' 'Apr.25' 0.0 720.0
'PM.Angel' 'May.25' 0.0 720.0
'PM.Angel' 'Jun.25' 0.0 720.0
'PM.Angel' 'Jul.25' 0.0 720.0
'PM.Angel' 'Aug.25' 0.0 720.0
'PM.Angel' 'Sep.25' 0.0 720.0
'PM.Angel' 'Oct.25' 0.0 720.0
'PM.Angel' 'Nov.25' 0.0 720.0
'PM.Angel' 'Dec.25' 0.0 720.0;

param OFFDAY_NO := 115;

param OFFDAY :=
1 2
2 5
3 6
4 12
5 13
6 19
7 20
8 26
9 27
10 33
11 34
12 40
13 41
14 47
15 48
16 54
17 55
18 61
19 62
20 68
21 69
22 75
23 76
24 82
25 83
26 89
27 90
28 96
29 97
30 103
31 104
32 110
33 111
34 117
35 118
36 122
37 124
38 125
39 131
40 132
41 138
42 139
43 145
44 146
45 152
46 153
47 159
48 160
49 166
50 167
51 173
52 174
53 180
54 181
55 187
56 188
57 194
58 195
59 201
60 202
61 208
62 209
63 215
64 216
65 222
66 223
67 229
68 230
69 236
70 237
71 243
72 244
73 250
74 251
75 257
76 258
77 264
78 265
79 271
80 272
81 278
82 279
83 285
84 286
85 292
86 293
87 299
88 300
89 306
90 307
91 313
92 314
93 320
94 321
95 327
96 328
97 334
98 335
99 341
100 342
101 348
102 349
103 355
104 356
105 362
106 363
107 369
108 370
109 376
110 377
111 383
112 384
113 390
114 391
115 397;

param XBDAY_NO := 662;

param XBDAY:
1   2   3   4   5 :=
1 'PM.Angel' 'charlie.pf' 158 1.0 2.0
2 'PM.Angel' 'charlie.pf' 161 1.0 2.0
3 'PM.Angel' 'charlie.pf' 162 1.0 2.0
4 'PM.Angel' 'charlie.pf' 163 1.0 2.0
5 'PM.Angel' 'charlie.pf' 164 1.0 2.0
6 'PM.Angel' 'charlie.pf' 165 1.0 2.0
7 'PM.Angel' 'charlie.pf' 168 1.0 2.0
8 'PM.Angel' 'charlie.pf' 169 1.0 2.0
9 'PM.Angel' 'charlie.pf' 170 1.0 2.0
10 'PM.Angel' 'charlie.pf' 171 1.0 2.0
11 'PM.Angel' 'charlie.pf' 172 1.0 2.0
12 'PM.Angel' 'charlie.pf' 175 1.0 2.0
13 'PM.Angel' 'charlie.pf' 176 1.0 2.0
14 'PM.Angel' 'charlie.pf' 177 1.0 2.0
15 'PM.Angel' 'charlie.pf' 178 1.0 2.0
16 'PM.Angel' 'charlie.pf' 179 1.0 2.0
17 'PM.Angel' 'charlie.pf' 182 1.0 2.0
18 'PM.Angel' 'charlie.pf' 183 1.0 2.0
19 'PM.Angel' 'charlie.pf' 184 1.0 2.0
20 'PM.Angel' 'charlie.pf' 185 1.0 2.0
21 'PM.Angel' 'charlie.pf' 186 1.0 2.0
22 'PM.Angel' 'charlie.pm' 3 2.0 3.0
23 'PM.Angel' 'charlie.pm' 4 2.0 3.0
24 'PM.Angel' 'charlie.pm' 7 2.0 3.0
25 'PM.Angel' 'charlie.pm' 8 2.0 3.0
26 'PM.Angel' 'charlie.pm' 9 2.0 3.0
27 'PM.Angel' 'charlie.pm' 10 2.0 3.0
28 'PM.Angel' 'charlie.pm' 11 2.0 3.0
29 'PM.Angel' 'charlie.pm' 14 2.0 3.0
30 'PM.Angel' 'charlie.pm' 15 2.0 3.0
31 'PM.Angel' 'charlie.pm' 16 2.0 3.0
32 'PM.Angel' 'charlie.pm' 17 2.0 3.0
33 'PM.Angel' 'charlie.pm' 18 2.0 3.0
34 'PM.Angel' 'charlie.pm' 21 2.0 3.0
35 'PM.Angel' 'charlie.pm' 22 2.0 3.0
36 'PM.Angel' 'charlie.pm' 23 2.0 3.0
37 'PM.Angel' 'charlie.pm' 24 2.0 3.0
38 'PM.Angel' 'charlie.pm' 25 2.0 3.0
39 'PM.Angel' 'charlie.pm' 28 2.0 3.0
40 'PM.Angel' 'charlie.pm' 29 2.0 3.0
41 'PM.Angel' 'charlie.pm' 30 2.0 3.0
42 'PM.Angel' 'charlie.pm' 31 2.0 3.0
43 'PM.Angel' 'charlie.pm' 32 2.0 3.0
44 'PM.Angel' 'charlie.pm' 35 2.0 3.0
45 'PM.Angel' 'charlie.pm' 36 2.0 3.0
46 'PM.Angel' 'charlie.pm' 37 2.0 3.0
47 'PM.Angel' 'charlie.pm' 38 2.0 3.0
48 'PM.Angel' 'charlie.pm' 39 2.0 3.0
49 'PM.Angel' 'charlie.pm' 42 2.0 3.0
50 'PM.Angel' 'charlie.pm' 43 2.0 3.0
51 'PM.Angel' 'charlie.pm' 44 2.0 3.0
52 'PM.Angel' 'charlie.pm' 45 2.0 3.0
53 'PM.Angel' 'charlie.pm' 46 2.0 3.0
54 'PM.Angel' 'charlie.pm' 49 2.0 3.0
55 'PM.Angel' 'charlie.pm' 50 2.0 3.0
56 'PM.Angel' 'charlie.pm' 51 2.0 3.0
57 'PM.Angel' 'charlie.pm' 52 2.0 3.0
58 'PM.Angel' 'charlie.pm' 53 2.0 3.0
59 'PM.Angel' 'charlie.pm' 56 2.0 3.0
60 'PM.Angel' 'charlie.pm' 57 2.0 3.0
61 'PM.Angel' 'charlie.pm' 58 2.0 3.0
62 'PM.Angel' 'charlie.pm' 59 2.0 3.0
63 'PM.Angel' 'charlie.pm' 60 2.0 3.0
64 'PM.Angel' 'charlie.pm' 63 2.0 3.0
65 'PM.Angel' 'charlie.pm' 64 2.0 3.0
66 'PM.Angel' 'charlie.pm' 65 2.0 3.0
67 'PM.Angel' 'charlie.pm' 66 2.0 3.0
68 'PM.Angel' 'charlie.pm' 67 2.0 3.0
69 'PM.Angel' 'charlie.pm' 70 2.0 3.0
70 'PM.Angel' 'charlie.pm' 71 2.0 3.0
71 'PM.Angel' 'charlie.pm' 72 2.0 3.0
72 'PM.Angel' 'charlie.pm' 73 2.0 3.0
73 'PM.Angel' 'charlie.pm' 74 2.0 3.0
74 'PM.Angel' 'charlie.pm' 77 2.0 3.0
75 'PM.Angel' 'charlie.pm' 78 2.0 3.0
76 'PM.Angel' 'charlie.pm' 79 2.0 3.0
77 'PM.Angel' 'charlie.pm' 80 2.0 3.0
78 'PM.Angel' 'charlie.pm' 81 2.0 3.0
79 'PM.Angel' 'charlie.pm' 84 2.0 3.0
80 'PM.Angel' 'charlie.pm' 85 2.0 3.0
81 'PM.Angel' 'charlie.pm' 86 2.0 3.0
82 'PM.Angel' 'charlie.pm' 87 2.0 3.0
83 'PM.Angel' 'charlie.pm' 88 2.0 3.0
84 'PM.Angel' 'charlie.pm' 91 2.0 3.0
85 'PM.Angel' 'charlie.pm' 92 2.0 3.0
86 'PM.Angel' 'charlie.pm' 93 2.0 3.0
87 'PM.Angel' 'charlie.pm' 94 2.0 3.0
88 'PM.Angel' 'charlie.pm' 95 2.0 3.0
89 'PM.Angel' 'charlie.pm' 98 2.0 3.0
90 'PM.Angel' 'charlie.pm' 99 2.0 3.0
91 'PM.Angel' 'charlie.pm' 100 2.0 3.0
92 'PM.Angel' 'charlie.pm' 101 2.0 3.0
93 'PM.Angel' 'charlie.pm' 102 2.0 3.0
94 'PM.Angel' 'charlie.pm' 105 2.0 3.0
95 'PM.Angel' 'charlie.pm' 106 2.0 3.0
96 'PM.Angel' 'charlie.pm' 107 2.0 3.0
97 'PM.Angel' 'charlie.pm' 108 2.0 3.0
98 'PM.Angel' 'charlie.pm' 109 2.0 3.0
99 'PM.Angel' 'charlie.pm' 112 2.0 3.0
100 'PM.Angel' 'charlie.pm' 113 2.0 3.0
101 'PM.Angel' 'charlie.pm' 114 2.0 3.0
102 'PM.Angel' 'charlie.pm' 115 2.0 3.0
103 'PM.Angel' 'charlie.pm' 116 2.0 3.0
104 'PM.Angel' 'charlie.pm' 119 2.0 3.0
105 'PM.Angel' 'charlie.pm' 120 2.0 3.0
106 'PM.Angel' 'charlie.pm' 121 2.0 3.0
107 'PM.Angel' 'charlie.pm' 123 2.0 3.0
108 'PM.Angel' 'charlie.pm' 126 2.0 3.0
109 'PM.Angel' 'charlie.pm' 127 2.0 3.0
110 'PM.Angel' 'charlie.pm' 128 2.0 3.0
111 'PM.Angel' 'charlie.pm' 129 2.0 3.0
112 'PM.Angel' 'charlie.pm' 130 2.0 3.0
113 'PM.Angel' 'charlie.pm' 133 2.0 3.0
114 'PM.Angel' 'charlie.pm' 134 2.0 3.0
115 'PM.Angel' 'charlie.pm' 135 2.0 3.0
116 'PM.Angel' 'charlie.pm' 136 2.0 3.0
117 'PM.Angel' 'charlie.pm' 137 2.0 3.0
118 'PM.Angel' 'charlie.pm' 140 2.0 3.0
119 'PM.Angel' 'charlie.pm' 141 2.0 3.0
120 'PM.Angel' 'charlie.pm' 142 2.0 3.0
121 'PM.Angel' 'charlie.pm' 143 2.0 3.0
122 'PM.Angel' 'charlie.pm' 144 2.0 3.0
123 'PM.Angel' 'charlie.pm' 147 2.0 3.0
124 'PM.Angel' 'charlie.pm' 148 2.0 3.0
125 'PM.Angel' 'charlie.pm' 149 2.0 3.0
126 'PM.Angel' 'charlie.pm' 150 2.0 3.0
127 'PM.Angel' 'charlie.pm' 151 2.0 3.0
128 'PM.Angel' 'charlie.pm' 154 2.0 3.0
129 'PM.Angel' 'charlie.pm' 155 2.0 3.0
130 'PM.Angel' 'charlie.pm' 156 2.0 3.0
131 'PM.Angel' 'charlie.pm' 157 2.0 3.0
132 'PM.Angel' 'delta.pf' 58 0.0 1.0
133 'PM.Angel' 'delta.pf' 59 0.0 1.0
134 'PM.Angel' 'delta.pf' 60 0.0 1.0
135 'PM.Angel' 'delta.pf' 63 0.0 1.0
136 'PM.Angel' 'delta.pf' 64 0.0 1.0
137 'PM.Angel' 'delta.pf' 65 0.0 1.0
138 'PM.Angel' 'delta.pf' 66 0.0 1.0
139 'PM.Angel' 'delta.pf' 67 0.0 1.0
140 'PM.Angel' 'delta.pf' 70 0.0 1.0
141 'PM.Angel' 'delta.pf' 71 0.0 1.0
142 'PM.Angel' 'delta.pf' 72 0.0 1.0
143 'PM.Angel' 'delta.pf' 73 0.0 1.0
144 'PM.Angel' 'delta.pf' 74 0.0 1.0
145 'PM.Angel' 'delta.pf' 77 0.0 1.0
146 'PM.Angel' 'delta.pf' 78 0.0 1.0
147 'PM.Angel' 'delta.pf' 79 0.0 1.0
148 'PM.Angel' 'delta.pf' 80 0.0 1.0
149 'PM.Angel' 'delta.pf' 81 0.0 1.0
150 'PM.Angel' 'delta.pf' 84 0.0 1.0
151 'PM.Angel' 'delta.pf' 85 0.0 1.0
152 'PM.Angel' 'delta.pf' 86 0.0 1.0
153 'PM.Angel' 'delta.pf' 87 0.0 1.0
154 'PM.Angel' 'delta.pf' 88 0.0 1.0
155 'PM.Angel' 'delta.pf' 91 0.0 1.0
156 'PM.Angel' 'delta.pf' 92 0.0 1.0
157 'PM.Angel' 'delta.pf' 93 0.0 1.0
158 'PM.Angel' 'delta.pf' 94 0.0 1.0
159 'PM.Angel' 'delta.pf' 95 0.0 1.0
160 'PM.Angel' 'delta.pf' 98 0.0 1.0
161 'PM.Angel' 'delta.pf' 99 0.0 1.0
162 'PM.Angel' 'delta.pf' 100 0.0 1.0
163 'PM.Angel' 'delta.pf' 101 0.0 1.0
164 'PM.Angel' 'delta.pf' 102 0.0 1.0
165 'PM.Angel' 'delta.pm' 3 2.0 3.0
166 'PM.Angel' 'delta.pm' 4 2.0 3.0
167 'PM.Angel' 'delta.pm' 7 2.0 3.0
168 'PM.Angel' 'delta.pm' 8 2.0 3.0
169 'PM.Angel' 'delta.pm' 9 2.0 3.0
170 'PM.Angel' 'delta.pm' 10 2.0 3.0
171 'PM.Angel' 'delta.pm' 11 2.0 3.0
172 'PM.Angel' 'delta.pm' 14 2.0 3.0
173 'PM.Angel' 'delta.pm' 15 2.0 3.0
174 'PM.Angel' 'delta.pm' 16 2.0 3.0
175 'PM.Angel' 'delta.pm' 17 2.0 3.0
176 'PM.Angel' 'delta.pm' 18 2.0 3.0
177 'PM.Angel' 'delta.pm' 21 2.0 3.0
178 'PM.Angel' 'delta.pm' 22 2.0 3.0
179 'PM.Angel' 'delta.pm' 23 2.0 3.0
180 'PM.Angel' 'delta.pm' 24 2.0 3.0
181 'PM.Angel' 'delta.pm' 25 2.0 3.0
182 'PM.Angel' 'delta.pm' 28 2.0 3.0
183 'PM.Angel' 'delta.pm' 29 2.0 3.0
184 'PM.Angel' 'delta.pm' 30 2.0 3.0
185 'PM.Angel' 'delta.pm' 31 2.0 3.0
186 'PM.Angel' 'delta.pm' 32 2.0 3.0
187 'PM.Angel' 'delta.pm' 35 2.0 3.0
188 'PM.Angel' 'delta.pm' 36 2.0 3.0
189 'PM.Angel' 'delta.pm' 37 2.0 3.0
190 'PM.Angel' 'delta.pm' 38 2.0 3.0
191 'PM.Angel' 'delta.pm' 39 2.0 3.0
192 'PM.Angel' 'delta.pm' 42 2.0 3.0
193 'PM.Angel' 'delta.pm' 43 2.0 3.0
194 'PM.Angel' 'delta.pm' 44 2.0 3.0
195 'PM.Angel' 'delta.pm' 45 2.0 3.0
196 'PM.Angel' 'delta.pm' 46 2.0 3.0
197 'PM.Angel' 'delta.pm' 49 2.0 3.0
198 'PM.Angel' 'delta.pm' 50 2.0 3.0
199 'PM.Angel' 'delta.pm' 51 2.0 3.0
200 'PM.Angel' 'delta.pm' 52 2.0 3.0
201 'PM.Angel' 'delta.pm' 53 2.0 3.0
202 'PM.Angel' 'delta.pm' 56 2.0 3.0
203 'PM.Angel' 'delta.pm' 57 2.0 3.0
204 'PM.Angel' 'juliet.pe' 42 2.0 3.0
205 'PM.Angel' 'juliet.pe' 43 2.0 3.0
206 'PM.Angel' 'juliet.pe' 44 2.0 3.0
207 'PM.Angel' 'juliet.pe' 45 2.0 3.0
208 'PM.Angel' 'juliet.pe' 46 2.0 3.0
209 'PM.Angel' 'juliet.pe' 49 2.0 3.0
210 'PM.Angel' 'juliet.pe' 50 2.0 3.0
211 'PM.Angel' 'juliet.pe' 51 2.0 3.0
212 'PM.Angel' 'juliet.pe' 52 2.0 3.0
213 'PM.Angel' 'juliet.pe' 53 2.0 3.0
214 'PM.Angel' 'juliet.pe' 56 2.0 3.0
215 'PM.Angel' 'juliet.pe' 57 2.0 3.0
216 'PM.Angel' 'juliet.pe' 58 2.0 3.0
217 'PM.Angel' 'juliet.pe' 59 2.0 3.0
218 'PM.Angel' 'juliet.pf' 183 0.0 1.0
219 'PM.Angel' 'juliet.pf' 184 0.0 1.0
220 'PM.Angel' 'juliet.pf' 185 0.0 1.0
221 'PM.Angel' 'juliet.pf' 186 0.0 1.0
222 'PM.Angel' 'juliet.pf' 189 0.0 1.0
223 'PM.Angel' 'juliet.pf' 190 0.0 1.0
224 'PM.Angel' 'juliet.pf' 191 0.0 1.0
225 'PM.Angel' 'juliet.pf' 192 0.0 1.0
226 'PM.Angel' 'juliet.pf' 193 0.0 1.0
227 'PM.Angel' 'juliet.pf' 196 0.0 1.0
228 'PM.Angel' 'juliet.pf' 197 0.0 1.0
229 'PM.Angel' 'juliet.pf' 198 0.0 1.0
230 'PM.Angel' 'juliet.pf' 199 0.0 1.0
231 'PM.Angel' 'juliet.pf' 200 0.0 1.0
232 'PM.Angel' 'juliet.pf' 203 0.0 1.0
233 'PM.Angel' 'juliet.pf' 204 0.0 1.0
234 'PM.Angel' 'juliet.pf' 205 0.0 1.0
235 'PM.Angel' 'juliet.pf' 206 0.0 1.0
236 'PM.Angel' 'juliet.pf' 207 0.0 1.0
237 'PM.Angel' 'juliet.pf' 210 0.0 1.0
238 'PM.Angel' 'juliet.pf' 211 0.0 1.0
239 'PM.Angel' 'juliet.pf' 212 0.0 1.0
240 'PM.Angel' 'juliet.pf' 213 0.0 1.0
241 'PM.Angel' 'juliet.pf' 214 0.0 1.0
242 'PM.Angel' 'juliet.pf' 217 0.0 1.0
243 'PM.Angel' 'juliet.pf' 218 0.0 1.0
244 'PM.Angel' 'juliet.pf' 219 0.0 1.0
245 'PM.Angel' 'juliet.pf' 220 0.0 1.0
246 'PM.Angel' 'juliet.pf' 221 0.0 1.0
247 'PM.Angel' 'juliet.pf' 224 0.0 1.0
248 'PM.Angel' 'juliet.pf' 225 0.0 1.0
249 'PM.Angel' 'juliet.pf' 226 0.0 1.0
250 'PM.Angel' 'juliet.pf' 227 0.0 1.0
251 'PM.Angel' 'juliet.pf' 228 0.0 1.0
252 'PM.Angel' 'juliet.pm' 60 2.0 3.0
253 'PM.Angel' 'juliet.pm' 63 2.0 3.0
254 'PM.Angel' 'juliet.pm' 64 2.0 3.0
255 'PM.Angel' 'juliet.pm' 65 2.0 3.0
256 'PM.Angel' 'juliet.pm' 66 2.0 3.0
257 'PM.Angel' 'juliet.pm' 67 2.0 3.0
258 'PM.Angel' 'juliet.pm' 70 2.0 3.0
259 'PM.Angel' 'juliet.pm' 71 2.0 3.0
260 'PM.Angel' 'juliet.pm' 72 2.0 3.0
261 'PM.Angel' 'juliet.pm' 73 2.0 3.0
262 'PM.Angel' 'juliet.pm' 74 2.0 3.0
263 'PM.Angel' 'juliet.pm' 77 2.0 3.0
264 'PM.Angel' 'juliet.pm' 78 2.0 3.0
265 'PM.Angel' 'juliet.pm' 79 2.0 3.0
266 'PM.Angel' 'juliet.pm' 80 2.0 3.0
267 'PM.Angel' 'juliet.pm' 81 2.0 3.0
268 'PM.Angel' 'juliet.pm' 84 2.0 3.0
269 'PM.Angel' 'juliet.pm' 85 2.0 3.0
270 'PM.Angel' 'juliet.pm' 86 2.0 3.0
271 'PM.Angel' 'juliet.pm' 87 2.0 3.0
272 'PM.Angel' 'juliet.pm' 88 2.0 3.0
273 'PM.Angel' 'juliet.pm' 91 2.0 3.0
274 'PM.Angel' 'juliet.pm' 92 2.0 3.0
275 'PM.Angel' 'juliet.pm' 93 2.0 3.0
276 'PM.Angel' 'juliet.pm' 94 2.0 3.0
277 'PM.Angel' 'juliet.pm' 95 2.0 3.0
278 'PM.Angel' 'juliet.pm' 98 2.0 3.0
279 'PM.Angel' 'juliet.pm' 99 2.0 3.0
280 'PM.Angel' 'juliet.pm' 100 2.0 3.0
281 'PM.Angel' 'juliet.pm' 101 2.0 3.0
282 'PM.Angel' 'juliet.pm' 102 2.0 3.0
283 'PM.Angel' 'juliet.pm' 105 2.0 3.0
284 'PM.Angel' 'juliet.pm' 106 2.0 3.0
285 'PM.Angel' 'juliet.pm' 107 2.0 3.0
286 'PM.Angel' 'juliet.pm' 108 2.0 3.0
287 'PM.Angel' 'juliet.pm' 109 2.0 3.0
288 'PM.Angel' 'juliet.pm' 112 2.0 3.0
289 'PM.Angel' 'juliet.pm' 113 2.0 3.0
290 'PM.Angel' 'juliet.pm' 114 2.0 3.0
291 'PM.Angel' 'juliet.pm' 115 2.0 3.0
292 'PM.Angel' 'juliet.pm' 116 2.0 3.0
293 'PM.Angel' 'juliet.pm' 119 2.0 3.0
294 'PM.Angel' 'juliet.pm' 120 2.0 3.0
295 'PM.Angel' 'juliet.pm' 121 2.0 3.0
296 'PM.Angel' 'juliet.pm' 123 2.0 3.0
297 'PM.Angel' 'juliet.pm' 126 2.0 3.0
298 'PM.Angel' 'juliet.pm' 127 2.0 3.0
299 'PM.Angel' 'juliet.pm' 128 2.0 3.0
300 'PM.Angel' 'juliet.pm' 129 2.0 3.0
301 'PM.Angel' 'juliet.pm' 130 2.0 3.0
302 'PM.Angel' 'juliet.pm' 133 2.0 3.0
303 'PM.Angel' 'juliet.pm' 134 2.0 3.0
304 'PM.Angel' 'juliet.pm' 135 2.0 3.0
305 'PM.Angel' 'juliet.pm' 136 2.0 3.0
306 'PM.Angel' 'juliet.pm' 137 2.0 3.0
307 'PM.Angel' 'juliet.pm' 140 2.0 3.0
308 'PM.Angel' 'juliet.pm' 141 2.0 3.0
309 'PM.Angel' 'juliet.pm' 142 2.0 3.0
310 'PM.Angel' 'juliet.pm' 143 2.0 3.0
311 'PM.Angel' 'juliet.pm' 144 2.0 3.0
312 'PM.Angel' 'juliet.pm' 147 2.0 3.0
313 'PM.Angel' 'juliet.pm' 148 2.0 3.0
314 'PM.Angel' 'juliet.pm' 149 2.0 3.0
315 'PM.Angel' 'juliet.pm' 150 2.0 3.0
316 'PM.Angel' 'juliet.pm' 151 2.0 3.0
317 'PM.Angel' 'juliet.pm' 154 2.0 3.0
318 'PM.Angel' 'juliet.pm' 155 2.0 3.0
319 'PM.Angel' 'juliet.pm' 156 2.0 3.0
320 'PM.Angel' 'juliet.pm' 157 2.0 3.0
321 'PM.Angel' 'juliet.pm' 158 2.0 3.0
322 'PM.Angel' 'juliet.pm' 161 2.0 3.0
323 'PM.Angel' 'juliet.pm' 162 2.0 3.0
324 'PM.Angel' 'juliet.pm' 163 2.0 3.0
325 'PM.Angel' 'juliet.pm' 164 2.0 3.0
326 'PM.Angel' 'juliet.pm' 165 2.0 3.0
327 'PM.Angel' 'juliet.pm' 168 2.0 3.0
328 'PM.Angel' 'juliet.pm' 169 2.0 3.0
329 'PM.Angel' 'juliet.pm' 170 2.0 3.0
330 'PM.Angel' 'juliet.pm' 171 2.0 3.0
331 'PM.Angel' 'juliet.pm' 172 2.0 3.0
332 'PM.Angel' 'juliet.pm' 175 2.0 3.0
333 'PM.Angel' 'juliet.pm' 176 2.0 3.0
334 'PM.Angel' 'juliet.pm' 177 2.0 3.0
335 'PM.Angel' 'juliet.pm' 178 2.0 3.0
336 'PM.Angel' 'juliet.pm' 179 2.0 3.0
337 'PM.Angel' 'juliet.pm' 182 2.0 3.0
338 'PM.Angel' 'mike.pe' 101 5.0 6.0
339 'PM.Angel' 'mike.pe' 102 5.0 6.0
340 'PM.Angel' 'mike.pe' 105 5.0 6.0
341 'PM.Angel' 'mike.pe' 106 5.0 6.0
342 'PM.Angel' 'mike.pe' 107 5.0 6.0
343 'PM.Angel' 'mike.pe' 108 5.0 6.0
344 'PM.Angel' 'mike.pe' 109 5.0 6.0
345 'PM.Angel' 'mike.pf' 270 0.0 1.0
346 'PM.Angel' 'mike.pf' 273 0.0 1.0
347 'PM.Angel' 'mike.pf' 274 0.0 1.0
348 'PM.Angel' 'mike.pf' 275 0.0 1.0
349 'PM.Angel' 'mike.pf' 276 0.0 1.0
350 'PM.Angel' 'mike.pf' 277 0.0 1.0
351 'PM.Angel' 'mike.pf' 280 0.0 1.0
352 'PM.Angel' 'mike.pf' 281 0.0 1.0
353 'PM.Angel' 'mike.pf' 282 0.0 1.0
354 'PM.Angel' 'mike.pf' 283 0.0 1.0
355 'PM.Angel' 'mike.pf' 284 0.0 1.0
356 'PM.Angel' 'mike.pf' 287 0.0 1.0
357 'PM.Angel' 'mike.pf' 288 0.0 1.0
358 'PM.Angel' 'mike.pf' 289 0.0 1.0
359 'PM.Angel' 'mike.pf' 290 0.0 1.0
360 'PM.Angel' 'mike.pf' 291 0.0 1.0
361 'PM.Angel' 'mike.pf' 294 0.0 1.0
362 'PM.Angel' 'mike.pf' 295 0.0 1.0
363 'PM.Angel' 'mike.pf' 296 0.0 1.0
364 'PM.Angel' 'mike.pf' 297 0.0 1.0
365 'PM.Angel' 'mike.pf' 298 0.0 1.0
366 'PM.Angel' 'mike.pf' 301 0.0 1.0
367 'PM.Angel' 'mike.pf' 302 0.0 1.0
368 'PM.Angel' 'mike.pf' 303 0.0 1.0
369 'PM.Angel' 'mike.pf' 304 0.0 1.0
370 'PM.Angel' 'mike.pm' 112 1.0 2.0
371 'PM.Angel' 'mike.pm' 113 1.0 2.0
372 'PM.Angel' 'mike.pm' 114 1.0 2.0
373 'PM.Angel' 'mike.pm' 115 1.0 2.0
374 'PM.Angel' 'mike.pm' 116 1.0 2.0
375 'PM.Angel' 'mike.pm' 119 1.0 2.0
376 'PM.Angel' 'mike.pm' 120 1.0 2.0
377 'PM.Angel' 'mike.pm' 121 1.0 2.0
378 'PM.Angel' 'mike.pm' 123 1.0 2.0
379 'PM.Angel' 'mike.pm' 126 1.0 2.0
380 'PM.Angel' 'mike.pm' 127 1.0 2.0
381 'PM.Angel' 'mike.pm' 128 1.0 2.0
382 'PM.Angel' 'mike.pm' 129 1.0 2.0
383 'PM.Angel' 'mike.pm' 130 1.0 2.0
384 'PM.Angel' 'mike.pm' 133 1.0 2.0
385 'PM.Angel' 'mike.pm' 134 1.0 2.0
386 'PM.Angel' 'mike.pm' 135 1.0 2.0
387 'PM.Angel' 'mike.pm' 136 1.0 2.0
388 'PM.Angel' 'mike.pm' 137 1.0 2.0
389 'PM.Angel' 'mike.pm' 140 1.0 2.0
390 'PM.Angel' 'mike.pm' 141 1.0 2.0
391 'PM.Angel' 'mike.pm' 142 1.0 2.0
392 'PM.Angel' 'mike.pm' 143 1.0 2.0
393 'PM.Angel' 'mike.pm' 144 1.0 2.0
394 'PM.Angel' 'mike.pm' 147 1.0 2.0
395 'PM.Angel' 'mike.pm' 148 1.0 2.0
396 'PM.Angel' 'mike.pm' 149 1.0 2.0
397 'PM.Angel' 'mike.pm' 150 1.0 2.0
398 'PM.Angel' 'mike.pm' 151 1.0 2.0
399 'PM.Angel' 'mike.pm' 154 1.0 2.0
400 'PM.Angel' 'mike.pm' 155 1.0 2.0
401 'PM.Angel' 'mike.pm' 156 1.0 2.0
402 'PM.Angel' 'mike.pm' 157 1.0 2.0
403 'PM.Angel' 'mike.pm' 158 1.0 2.0
404 'PM.Angel' 'mike.pm' 161 1.0 2.0
405 'PM.Angel' 'mike.pm' 162 1.0 2.0
406 'PM.Angel' 'mike.pm' 163 1.0 2.0
407 'PM.Angel' 'mike.pm' 164 1.0 2.0
408 'PM.Angel' 'mike.pm' 165 1.0 2.0
409 'PM.Angel' 'mike.pm' 168 1.0 2.0
410 'PM.Angel' 'mike.pm' 169 1.0 2.0
411 'PM.Angel' 'mike.pm' 170 1.0 2.0
412 'PM.Angel' 'mike.pm' 171 1.0 2.0
413 'PM.Angel' 'mike.pm' 172 1.0 2.0
414 'PM.Angel' 'mike.pm' 175 1.0 2.0
415 'PM.Angel' 'mike.pm' 176 1.0 2.0
416 'PM.Angel' 'mike.pm' 177 1.0 2.0
417 'PM.Angel' 'mike.pm' 178 1.0 2.0
418 'PM.Angel' 'mike.pm' 179 1.0 2.0
419 'PM.Angel' 'mike.pm' 182 1.0 2.0
420 'PM.Angel' 'mike.pm' 183 1.0 2.0
421 'PM.Angel' 'mike.pm' 184 1.0 2.0
422 'PM.Angel' 'mike.pm' 185 1.0 2.0
423 'PM.Angel' 'mike.pm' 186 1.0 2.0
424 'PM.Angel' 'mike.pm' 189 1.0 2.0
425 'PM.Angel' 'mike.pm' 190 1.0 2.0
426 'PM.Angel' 'mike.pm' 191 1.0 2.0
427 'PM.Angel' 'mike.pm' 192 1.0 2.0
428 'PM.Angel' 'mike.pm' 193 1.0 2.0
429 'PM.Angel' 'mike.pm' 196 1.0 2.0
430 'PM.Angel' 'mike.pm' 197 1.0 2.0
431 'PM.Angel' 'mike.pm' 198 1.0 2.0
432 'PM.Angel' 'mike.pm' 199 1.0 2.0
433 'PM.Angel' 'mike.pm' 200 1.0 2.0
434 'PM.Angel' 'mike.pm' 203 1.0 2.0
435 'PM.Angel' 'mike.pm' 204 1.0 2.0
436 'PM.Angel' 'mike.pm' 205 1.0 2.0
437 'PM.Angel' 'mike.pm' 206 1.0 2.0
438 'PM.Angel' 'mike.pm' 207 1.0 2.0
439 'PM.Angel' 'mike.pm' 210 1.0 2.0
440 'PM.Angel' 'mike.pm' 211 1.0 2.0
441 'PM.Angel' 'mike.pm' 212 1.0 2.0
442 'PM.Angel' 'mike.pm' 213 1.0 2.0
443 'PM.Angel' 'mike.pm' 214 1.0 2.0
444 'PM.Angel' 'mike.pm' 217 1.0 2.0
445 'PM.Angel' 'mike.pm' 218 1.0 2.0
446 'PM.Angel' 'mike.pm' 219 1.0 2.0
447 'PM.Angel' 'mike.pm' 220 1.0 2.0
448 'PM.Angel' 'mike.pm' 221 1.0 2.0
449 'PM.Angel' 'mike.pm' 224 1.0 2.0
450 'PM.Angel' 'mike.pm' 225 1.0 2.0
451 'PM.Angel' 'mike.pm' 226 1.0 2.0
452 'PM.Angel' 'mike.pm' 227 1.0 2.0
453 'PM.Angel' 'mike.pm' 228 1.0 2.0
454 'PM.Angel' 'mike.pm' 231 1.0 2.0
455 'PM.Angel' 'mike.pm' 232 1.0 2.0
456 'PM.Angel' 'mike.pm' 233 1.0 2.0
457 'PM.Angel' 'mike.pm' 234 1.0 2.0
458 'PM.Angel' 'mike.pm' 235 1.0 2.0
459 'PM.Angel' 'mike.pm' 238 1.0 2.0
460 'PM.Angel' 'mike.pm' 239 1.0 2.0
461 'PM.Angel' 'mike.pm' 240 1.0 2.0
462 'PM.Angel' 'mike.pm' 241 1.0 2.0
463 'PM.Angel' 'mike.pm' 242 1.0 2.0
464 'PM.Angel' 'mike.pm' 245 1.0 2.0
465 'PM.Angel' 'mike.pm' 246 1.0 2.0
466 'PM.Angel' 'mike.pm' 247 1.0 2.0
467 'PM.Angel' 'mike.pm' 248 1.0 2.0
468 'PM.Angel' 'mike.pm' 249 1.0 2.0
469 'PM.Angel' 'mike.pm' 252 1.0 2.0
470 'PM.Angel' 'mike.pm' 253 1.0 2.0
471 'PM.Angel' 'mike.pm' 254 1.0 2.0
472 'PM.Angel' 'mike.pm' 255 1.0 2.0
473 'PM.Angel' 'mike.pm' 256 1.0 2.0
474 'PM.Angel' 'mike.pm' 259 1.0 2.0
475 'PM.Angel' 'mike.pm' 260 1.0 2.0
476 'PM.Angel' 'mike.pm' 261 1.0 2.0
477 'PM.Angel' 'mike.pm' 262 1.0 2.0
478 'PM.Angel' 'mike.pm' 263 1.0 2.0
479 'PM.Angel' 'mike.pm' 266 1.0 2.0
480 'PM.Angel' 'mike.pm' 267 1.0 2.0
481 'PM.Angel' 'mike.pm' 268 1.0 2.0
482 'PM.Angel' 'mike.pm' 269 1.0 2.0
483 'PM.Angel' 'november.pe' 147 2.0 3.0
484 'PM.Angel' 'november.pe' 148 2.0 3.0
485 'PM.Angel' 'november.pe' 149 2.0 3.0
486 'PM.Angel' 'november.pe' 150 2.0 3.0
487 'PM.Angel' 'november.pe' 151 2.0 3.0
488 'PM.Angel' 'november.pe' 154 2.0 3.0
489 'PM.Angel' 'november.pe' 155 2.0 3.0
490 'PM.Angel' 'november.pe' 156 2.0 3.0
491 'PM.Angel' 'november.pe' 157 2.0 3.0
492 'PM.Angel' 'november.pe' 158 2.0 3.0
493 'PM.Angel' 'november.pe' 161 2.0 3.0
494 'PM.Angel' 'november.pe' 162 2.0 3.0
495 'PM.Angel' 'november.pe' 163 2.0 3.0
496 'PM.Angel' 'november.pe' 164 2.0 3.0
497 'PM.Angel' 'november.pe' 165 2.0 3.0
498 'PM.Angel' 'november.pf' 366 0.0 1.0
499 'PM.Angel' 'november.pf' 367 0.0 1.0
500 'PM.Angel' 'november.pf' 368 0.0 1.0
501 'PM.Angel' 'november.pf' 371 0.0 1.0
502 'PM.Angel' 'november.pf' 372 0.0 1.0
503 'PM.Angel' 'november.pf' 373 0.0 1.0
504 'PM.Angel' 'november.pf' 374 0.0 1.0
505 'PM.Angel' 'november.pf' 375 0.0 1.0
506 'PM.Angel' 'november.pf' 378 0.0 1.0
507 'PM.Angel' 'november.pf' 379 0.0 1.0
508 'PM.Angel' 'november.pf' 380 0.0 1.0
509 'PM.Angel' 'november.pf' 381 0.0 1.0
510 'PM.Angel' 'november.pf' 382 0.0 1.0
511 'PM.Angel' 'november.pf' 385 0.0 1.0
512 'PM.Angel' 'november.pf' 386 0.0 1.0
513 'PM.Angel' 'november.pf' 387 0.0 1.0
514 'PM.Angel' 'november.pf' 388 0.0 1.0
515 'PM.Angel' 'november.pf' 389 0.0 1.0
516 'PM.Angel' 'november.pf' 392 0.0 1.0
517 'PM.Angel' 'november.pf' 393 0.0 1.0
518 'PM.Angel' 'november.pf' 394 0.0 1.0
519 'PM.Angel' 'november.pf' 395 0.0 1.0
520 'PM.Angel' 'november.pf' 396 0.0 1.0
521 'PM.Angel' 'november.pm' 168 1.0 2.0
522 'PM.Angel' 'november.pm' 169 1.0 2.0
523 'PM.Angel' 'november.pm' 170 1.0 2.0
524 'PM.Angel' 'november.pm' 171 1.0 2.0
525 'PM.Angel' 'november.pm' 172 1.0 2.0
526 'PM.Angel' 'november.pm' 175 1.0 2.0
527 'PM.Angel' 'november.pm' 176 1.0 2.0
528 'PM.Angel' 'november.pm' 177 1.0 2.0
529 'PM.Angel' 'november.pm' 178 1.0 2.0
530 'PM.Angel' 'november.pm' 179 1.0 2.0
531 'PM.Angel' 'november.pm' 182 1.0 2.0
532 'PM.Angel' 'november.pm' 183 1.0 2.0
533 'PM.Angel' 'november.pm' 184 1.0 2.0
534 'PM.Angel' 'november.pm' 185 1.0 2.0
535 'PM.Angel' 'november.pm' 186 1.0 2.0
536 'PM.Angel' 'november.pm' 189 1.0 2.0
537 'PM.Angel' 'november.pm' 190 1.0 2.0
538 'PM.Angel' 'november.pm' 191 1.0 2.0
539 'PM.Angel' 'november.pm' 192 1.0 2.0
540 'PM.Angel' 'november.pm' 193 1.0 2.0
541 'PM.Angel' 'november.pm' 196 1.0 2.0
542 'PM.Angel' 'november.pm' 197 1.0 2.0
543 'PM.Angel' 'november.pm' 198 1.0 2.0
544 'PM.Angel' 'november.pm' 199 1.0 2.0
545 'PM.Angel' 'november.pm' 200 1.0 2.0
546 'PM.Angel' 'november.pm' 203 1.0 2.0
547 'PM.Angel' 'november.pm' 204 1.0 2.0
548 'PM.Angel' 'november.pm' 205 1.0 2.0
549 'PM.Angel' 'november.pm' 206 1.0 2.0
550 'PM.Angel' 'november.pm' 207 1.0 2.0
551 'PM.Angel' 'november.pm' 210 1.0 2.0
552 'PM.Angel' 'november.pm' 211 1.0 2.0
553 'PM.Angel' 'november.pm' 212 1.0 2.0
554 'PM.Angel' 'november.pm' 213 1.0 2.0
555 'PM.Angel' 'november.pm' 214 1.0 2.0
556 'PM.Angel' 'november.pm' 217 1.0 2.0
557 'PM.Angel' 'november.pm' 218 1.0 2.0
558 'PM.Angel' 'november.pm' 219 1.0 2.0
559 'PM.Angel' 'november.pm' 220 1.0 2.0
560 'PM.Angel' 'november.pm' 221 1.0 2.0
561 'PM.Angel' 'november.pm' 224 1.0 2.0
562 'PM.Angel' 'november.pm' 225 1.0 2.0
563 'PM.Angel' 'november.pm' 226 1.0 2.0
564 'PM.Angel' 'november.pm' 227 1.0 2.0
565 'PM.Angel' 'november.pm' 228 1.0 2.0
566 'PM.Angel' 'november.pm' 231 1.0 2.0
567 'PM.Angel' 'november.pm' 232 1.0 2.0
568 'PM.Angel' 'november.pm' 233 1.0 2.0
569 'PM.Angel' 'november.pm' 234 1.0 2.0
570 'PM.Angel' 'november.pm' 235 1.0 2.0
571 'PM.Angel' 'november.pm' 238 1.0 2.0
572 'PM.Angel' 'november.pm' 239 1.0 2.0
573 'PM.Angel' 'november.pm' 240 1.0 2.0
574 'PM.Angel' 'november.pm' 241 1.0 2.0
575 'PM.Angel' 'november.pm' 242 1.0 2.0
576 'PM.Angel' 'november.pm' 245 1.0 2.0
577 'PM.Angel' 'november.pm' 246 1.0 2.0
578 'PM.Angel' 'november.pm' 247 1.0 2.0
579 'PM.Angel' 'november.pm' 248 1.0 2.0
580 'PM.Angel' 'november.pm' 249 1.0 2.0
581 'PM.Angel' 'november.pm' 252 1.0 2.0
582 'PM.Angel' 'november.pm' 253 1.0 2.0
583 'PM.Angel' 'november.pm' 254 1.0 2.0
584 'PM.Angel' 'november.pm' 255 1.0 2.0
585 'PM.Angel' 'november.pm' 256 1.0 2.0
586 'PM.Angel' 'november.pm' 259 1.0 2.0
587 'PM.Angel' 'november.pm' 260 1.0 2.0
588 'PM.Angel' 'november.pm' 261 1.0 2.0
589 'PM.Angel' 'november.pm' 262 1.0 2.0
590 'PM.Angel' 'november.pm' 263 1.0 2.0
591 'PM.Angel' 'november.pm' 266 1.0 2.0
592 'PM.Angel' 'november.pm' 267 1.0 2.0
593 'PM.Angel' 'november.pm' 268 1.0 2.0
594 'PM.Angel' 'november.pm' 269 1.0 2.0
595 'PM.Angel' 'november.pm' 270 1.0 2.0
596 'PM.Angel' 'november.pm' 273 1.0 2.0
597 'PM.Angel' 'november.pm' 274 1.0 2.0
598 'PM.Angel' 'november.pm' 275 1.0 2.0
599 'PM.Angel' 'november.pm' 276 1.0 2.0
600 'PM.Angel' 'november.pm' 277 1.0 2.0
601 'PM.Angel' 'november.pm' 280 1.0 2.0
602 'PM.Angel' 'november.pm' 281 1.0 2.0
603 'PM.Angel' 'november.pm' 282 1.0 2.0
604 'PM.Angel' 'november.pm' 283 1.0 2.0
605 'PM.Angel' 'november.pm' 284 1.0 2.0
606 'PM.Angel' 'november.pm' 287 1.0 2.0
607 'PM.Angel' 'november.pm' 288 1.0 2.0
608 'PM.Angel' 'november.pm' 289 1.0 2.0
609 'PM.Angel' 'november.pm' 290 1.0 2.0
610 'PM.Angel' 'november.pm' 291 1.0 2.0
611 'PM.Angel' 'november.pm' 294 1.0 2.0
612 'PM.Angel' 'november.pm' 295 1.0 2.0
613 'PM.Angel' 'november.pm' 296 1.0 2.0
614 'PM.Angel' 'november.pm' 297 1.0 2.0
615 'PM.Angel' 'november.pm' 298 1.0 2.0
616 'PM.Angel' 'november.pm' 301 1.0 2.0
617 'PM.Angel' 'november.pm' 302 1.0 2.0
618 'PM.Angel' 'november.pm' 303 1.0 2.0
619 'PM.Angel' 'november.pm' 304 1.0 2.0
620 'PM.Angel' 'november.pm' 305 1.0 2.0
621 'PM.Angel' 'november.pm' 308 1.0 2.0
622 'PM.Angel' 'november.pm' 309 1.0 2.0
623 'PM.Angel' 'november.pm' 310 1.0 2.0
624 'PM.Angel' 'november.pm' 311 1.0 2.0
625 'PM.Angel' 'november.pm' 312 1.0 2.0
626 'PM.Angel' 'november.pm' 315 1.0 2.0
627 'PM.Angel' 'november.pm' 316 1.0 2.0
628 'PM.Angel' 'november.pm' 317 1.0 2.0
629 'PM.Angel' 'november.pm' 318 1.0 2.0
630 'PM.Angel' 'november.pm' 319 1.0 2.0
631 'PM.Angel' 'november.pm' 322 1.0 2.0
632 'PM.Angel' 'november.pm' 323 1.0 2.0
633 'PM.Angel' 'november.pm' 324 1.0 2.0
634 'PM.Angel' 'november.pm' 325 1.0 2.0
635 'PM.Angel' 'november.pm' 326 1.0 2.0
636 'PM.Angel' 'november.pm' 329 1.0 2.0
637 'PM.Angel' 'november.pm' 330 1.0 2.0
638 'PM.Angel' 'november.pm' 331 1.0 2.0
639 'PM.Angel' 'november.pm' 332 1.0 2.0
640 'PM.Angel' 'november.pm' 333 1.0 2.0
641 'PM.Angel' 'november.pm' 336 1.0 2.0
642 'PM.Angel' 'november.pm' 337 1.0 2.0
643 'PM.Angel' 'november.pm' 338 1.0 2.0
644 'PM.Angel' 'november.pm' 339 1.0 2.0
645 'PM.Angel' 'november.pm' 340 1.0 2.0
646 'PM.Angel' 'november.pm' 343 1.0 2.0
647 'PM.Angel' 'november.pm' 344 1.0 2.0
648 'PM.Angel' 'november.pm' 345 1.0 2.0
649 'PM.Angel' 'november.pm' 346 1.0 2.0
650 'PM.Angel' 'november.pm' 347 1.0 2.0
651 'PM.Angel' 'november.pm' 350 1.0 2.0
652 'PM.Angel' 'november.pm' 351 1.0 2.0
653 'PM.Angel' 'november.pm' 352 1.0 2.0
654 'PM.Angel' 'november.pm' 353 1.0 2.0
655 'PM.Angel' 'november.pm' 354 1.0 2.0
656 'PM.Angel' 'november.pm' 357 1.0 2.0
657 'PM.Angel' 'november.pm' 358 1.0 2.0
658 'PM.Angel' 'november.pm' 359 1.0 2.0
659 'PM.Angel' 'november.pm' 360 1.0 2.0
660 'PM.Angel' 'november.pm' 361 1.0 2.0
661 'PM.Angel' 'november.pm' 364 1.0 2.0
662 'PM.Angel' 'november.pm' 365 1.0 2.0;

param XBSUM_NO := 0;

param XBSUM:
1   2   3   4   5   6 :=
;

param UBDAY_NO := 0;

param UBDAY:
1   2   3   4 :=
;

param UBSUM_NO := 0;

param UBSUM:
1   2   3   4   5   6 :=
;

set LINKS :=
'PM.Angel' 'charlie.pm'
'PM.Angel' 'charlie.pf'
'PM.Angel' 'delta.pm'
'PM.Angel' 'delta.pf'
'PM.Angel' 'juliet.pe'
'PM.Angel' 'juliet.pm'
'PM.Angel' 'juliet.pf'
'PM.Angel' 'mike.pe'
'PM.Angel' 'mike.pm'
'PM.Angel' 'mike.pf'
'PM.Angel' 'november.pe'
'PM.Angel' 'november.pm'
'PM.Angel' 'november.pf';

